27
10000 10000
887 5123
3585 2928
6073 5216
1581 5835
8093 2458
7293 2671
1626 6781
6542 5547
5711 4543
2568 3419
1265 1164
4380 4232
5660 2003
1806 7940
2997 5229
6680 376
9359 585
1796 8265
7157 5868
6478 863
2671 6519
3323 2521
6907 2900
8943 1112
2258 2763
8179 7186
3599 94
